244 5
10 10 10 10 10 

0 0 0 0 0 0 3 2 14 26 
0 0 0 0 0 0 4 3 5 7 19 
10 0 0 0 1 0 2 6 4 
10 0 0 0 6 0 5 12 11 10 9 8 
10 0 0 0 3 0 4 12 10 9 8 
4 0 0 0 4 0 2 10 9 
4 0 0 0 7 0 2 11 8 
4 0 0 0 4 0 1 13 
7 0 0 0 9 0 1 13 
2 0 0 0 4 0 1 13 
10 0 0 0 5 0 1 13 
10 0 0 0 7 0 1 13 
0 0 0 0 0 0 1 38 
0 0 0 0 0 0 4 15 17 18 55 
6 0 0 0 1 0 3 23 19 16 
4 0 0 0 3 0 4 24 22 21 20 
5 0 0 0 6 0 3 23 22 20 
2 0 0 0 7 0 2 21 20 
4 0 0 0 3 0 1 20 
3 0 0 0 8 0 1 25 
6 0 0 0 6 0 1 25 
4 0 0 0 3 0 1 25 
9 0 0 0 6 0 1 25 
8 0 0 0 7 0 1 25 
0 0 0 0 0 0 1 38 
0 0 0 0 0 0 6 27 28 30 31 32 36 
2 0 0 0 1 0 2 35 29 
1 0 0 0 5 0 1 29 
4 0 0 0 5 0 1 33 
1 0 0 0 5 0 1 34 
9 0 0 0 6 0 1 33 
7 0 0 0 6 0 1 33 
6 0 0 0 8 0 1 37 
6 0 0 0 3 0 1 37 
6 0 0 0 6 0 2 37 112 
10 0 0 0 5 0 1 37 
0 0 0 0 0 0 1 38 
0 0 0 0 0 0 3 39 51 63 
0 0 0 0 0 0 5 40 41 42 43 44 
9 1 0 0 0 0 3 49 46 45 
9 3 0 0 0 0 2 48 45 
5 5 0 0 0 0 2 49 47 
10 5 0 0 0 0 2 48 47 
2 10 0 0 0 0 2 48 47 
1 6 0 0 0 0 1 47 
10 5 0 0 0 0 1 47 
10 4 0 0 0 0 1 50 
8 6 0 0 0 0 1 50 
9 5 0 0 0 0 1 50 
0 0 0 0 0 0 1 75 
0 0 0 0 0 0 5 52 53 55 56 57 
9 1 0 0 0 0 1 54 
1 6 0 0 0 0 1 54 
9 7 0 0 0 0 4 61 60 59 58 
6 4 0 0 0 0 4 61 60 59 58 
3 4 0 0 0 0 2 60 59 
7 8 0 0 0 0 1 58 
1 4 0 0 0 0 1 62 
7 7 0 0 0 0 1 62 
5 7 0 0 0 0 1 62 
3 2 0 0 0 0 1 62 
0 0 0 0 0 0 1 75 
0 0 0 0 0 0 5 64 65 67 72 73 
7 0 0 1 0 0 3 71 68 66 
2 0 0 3 0 0 2 70 68 
4 0 0 3 0 0 1 69 
1 0 0 6 0 0 1 68 
8 0 0 5 0 0 1 74 
2 0 0 6 0 0 1 74 
1 0 0 6 0 0 1 74 
5 0 0 8 0 0 1 74 
8 0 0 4 0 0 1 74 
2 0 0 8 0 0 1 74 
0 0 0 0 0 0 1 75 
0 0 0 0 0 0 3 76 88 120 
0 0 0 0 0 0 4 77 78 80 81 
4 0 3 0 0 0 3 85 82 79 
7 0 5 0 0 0 2 82 79 
5 0 5 0 0 0 3 86 84 83 
9 0 2 0 0 0 3 85 84 83 
6 0 4 0 0 0 2 85 83 
5 0 4 0 0 0 1 83 
5 0 5 0 0 0 1 87 
3 0 8 0 0 0 1 87 
9 0 4 0 0 0 1 87 
1 0 10 0 0 0 1 87 
0 0 0 0 0 0 3 152 164 186 
0 0 0 0 0 0 7 89 90 91 92 98 117 118 
5 0 0 3 1 1 4 105 96 94 93 
10 0 0 5 6 6 6 114 113 111 105 101 95 
6 0 0 5 5 6 6 116 114 110 106 104 96 
2 0 0 6 7 4 4 115 114 101 95 
1 0 0 7 10 3 3 113 106 95 
2 0 0 6 6 7 3 109 99 97 
8 0 0 7 3 4 2 109 97 
4 0 0 5 1 4 4 113 111 109 100 
2 0 0 7 4 5 3 110 104 100 
4 0 0 5 3 6 3 105 103 99 
4 0 0 5 3 5 2 112 104 
8 0 0 7 3 8 1 102 
3 0 0 7 10 5 1 102 
2 0 0 5 5 4 1 103 
9 0 0 3 1 8 1 107 
2 0 0 6 4 7 1 108 
4 0 0 6 3 5 1 112 
3 0 0 5 4 8 1 111 
5 0 0 3 6 3 1 119 
5 0 0 1 6 4 1 119 
4 0 0 3 4 5 1 119 
4 0 0 3 5 3 1 119 
2 0 0 4 5 9 1 119 
5 0 0 6 6 3 1 119 
7 0 0 10 7 4 1 119 
9 0 0 3 8 5 1 119 
5 0 0 5 7 5 1 119 
9 0 0 3 8 5 1 119 
1 0 0 2 4 5 1 119 
9 0 0 7 5 3 1 119 
0 0 0 0 0 0 1 244 
0 0 0 0 0 0 6 121 122 123 124 125 136 
3 0 0 1 1 1 4 137 128 127 126 
5 0 0 7 3 3 5 137 134 132 127 126 
6 0 0 4 4 7 3 132 127 126 
6 0 0 7 4 8 3 138 128 126 
6 0 0 8 7 7 4 140 138 133 128 
3 0 0 6 5 8 3 133 130 129 
2 0 0 3 5 8 2 138 131 
2 0 0 4 6 4 2 134 132 
4 0 0 3 6 3 2 141 135 
2 0 0 3 2 5 2 141 135 
6 0 0 5 7 4 2 141 135 
7 0 0 5 7 6 1 135 
3 0 0 4 5 7 1 135 
10 0 0 8 6 5 1 135 
5 0 0 4 4 3 5 150 149 146 142 139 
10 0 0 7 4 3 5 150 149 146 142 139 
6 0 0 7 7 9 3 149 144 142 
3 0 0 6 3 8 2 149 139 
1 0 0 6 4 5 2 147 143 
8 0 0 3 7 5 1 141 
5 0 0 7 4 3 3 150 149 147 
3 0 0 8 7 7 2 147 145 
1 0 0 3 4 3 1 144 
2 0 0 2 5 6 1 148 
4 0 0 5 5 4 1 148 
7 0 0 5 5 4 1 147 
3 0 0 5 7 3 1 151 
9 0 0 6 5 4 1 151 
4 0 0 4 8 4 1 151 
8 0 0 4 3 3 1 151 
0 0 0 0 0 0 1 244 
0 0 0 0 0 0 6 153 154 155 156 157 162 
10 0 1 0 0 0 3 161 160 158 
8 0 7 0 0 0 2 160 158 
5 0 9 0 0 0 1 158 
5 0 7 0 0 0 1 158 
9 0 4 0 0 0 1 158 
9 0 4 0 0 0 1 159 
1 0 5 0 0 0 1 163 
5 0 3 0 0 0 1 163 
3 0 4 0 0 0 1 163 
5 0 6 0 0 0 1 163 
0 0 0 0 0 0 3 208 220 232 
0 0 0 0 0 0 7 165 166 167 169 170 171 172 
9 0 1 0 1 0 3 184 176 168 
6 0 4 0 3 0 6 184 183 181 178 176 174 
2 0 5 0 9 0 5 184 179 178 176 173 
1 0 10 0 3 0 4 183 178 174 173 
4 0 8 0 8 0 4 183 178 175 174 
7 0 5 0 3 0 5 183 182 181 178 176 
1 0 2 0 8 0 5 183 182 181 178 177 
4 0 4 0 4 0 3 184 177 173 
7 0 3 0 8 0 3 182 181 180 
8 0 6 0 8 0 2 182 177 
4 0 4 0 6 0 2 181 180 
10 0 5 0 5 0 1 177 
9 0 7 0 5 0 1 180 
10 0 5 0 7 0 1 180 
7 0 5 0 4 0 1 180 
5 0 5 0 4 0 1 185 
3 0 6 0 1 0 1 185 
4 0 6 0 5 0 1 185 
2 0 5 0 2 0 1 185 
10 0 4 0 6 0 1 185 
0 0 0 0 0 0 1 244 
0 0 0 0 0 0 5 187 188 189 192 195 
9 1 1 0 0 0 4 206 199 194 191 
10 7 2 0 0 0 3 200 194 190 
9 6 3 0 0 0 4 205 199 194 193 
1 4 6 0 0 0 4 206 205 197 193 
8 3 5 0 0 0 3 205 197 193 
9 6 6 0 0 0 3 205 198 194 
9 4 5 0 0 0 3 202 198 196 
6 3 3 0 0 0 3 202 197 196 
1 8 10 0 0 0 4 206 205 201 199 
4 6 6 0 0 0 2 204 201 
3 4 3 0 0 0 1 203 
10 6 3 0 0 0 1 203 
3 7 4 0 0 0 1 202 
4 5 3 0 0 0 1 201 
5 3 6 0 0 0 1 207 
1 5 5 0 0 0 1 207 
3 6 4 0 0 0 1 207 
3 2 9 0 0 0 1 207 
7 7 7 0 0 0 1 207 
3 7 9 0 0 0 1 207 
0 0 0 0 0 0 1 244 
0 0 0 0 0 0 5 209 210 212 213 218 
3 0 0 1 0 0 2 217 211 
6 0 0 3 0 0 1 211 
8 0 0 2 0 0 1 214 
8 0 0 9 0 0 1 216 
10 0 0 7 0 0 1 215 
4 0 0 6 0 0 1 219 
10 0 0 7 0 0 1 219 
6 0 0 8 0 0 1 219 
6 0 0 4 0 0 1 219 
3 0 0 3 0 0 1 219 
0 0 0 0 0 0 1 244 
0 0 0 0 0 0 2 221 222 
3 1 0 0 0 0 2 230 224 
2 7 0 0 0 0 1 223 
3 3 0 0 0 0 6 230 229 228 227 226 225 
8 3 0 0 0 0 5 229 228 227 226 225 
5 4 0 0 0 0 1 231 
8 6 0 0 0 0 1 231 
5 7 0 0 0 0 1 231 
2 3 0 0 0 0 1 231 
3 8 0 0 0 0 1 231 
1 8 0 0 0 0 1 231 
0 0 0 0 0 0 1 244 
0 0 0 0 0 0 5 233 234 235 236 239 
6 0 0 0 0 1 3 241 238 237 
1 0 0 0 0 4 3 242 241 240 
8 0 0 0 0 2 2 241 237 
9 0 0 0 0 6 2 241 240 
7 0 0 0 0 6 1 240 
5 0 0 0 0 8 1 240 
5 0 0 0 0 6 1 240 
4 0 0 0 0 4 1 243 
10 0 0 0 0 8 1 243 
9 0 0 0 0 5 1 243 
0 0 0 0 0 0 1 244 
0 0 0 0 0 0 0 
